NAME: tsp30_3
COMMENT: 30-tsp problem (Padberg/Rinaldi)
TYPE: TSP
DIMENSION: 30
EDGE_WEIGHT_TYPE : EUC_2D
NODE_COORD_SECTION
1 31 18
2 3 19
3 25 31
4 10 25
5 40 24
6 32 38
7 28 22
8 10 38
9 10 19
10 10 38
11 17 17
12 16 32
13 36 6
14 5 36
15 25 28
16 11 39
17 40 39
18 12 37
19 39 12
20 33 18
21 30 36
22 14 28
23 10 12
24 24 7
25 23 33
26 34 11
27 30 1
28 16 7
29 16 39
30 32 24
